%nprocshared=24
%mem=120GB
# HF/6-31G(d) Opt Freq

O=[N+1]([O-1])OCC(C(O[N+1]([O-1])=O)O[N+1]([O-1])[O-1])O[N+1] geometry optimization

0 1
O    3.863579696767292    1.4282957283655173    0.9960569183950133
N    3.3669077858465633    0.5335494195456139    0.3170369706970949
O    3.8795217123645    -0.47145427867863543    -0.17498205219469748
O    1.9778609788382264    0.7171072223978943    0.10640897679147442
C    1.3978609757922438    -0.3220920700317921    -0.6778037769528698
C    -0.1018908182961434    -0.059931586344298994    -0.905855332122405
C    -0.9303961511770853    0.0803705403324969    0.39906115662231906
O    -0.7287952795099117    -1.070864659465516    1.221953651430046
N    -1.615018677129062    -2.1284024516250937    0.9290043231497226
O    -2.303989430143717    -2.01555735729018    -0.08321548027535915
O    -1.4993717059257434    -3.0712591396173825    1.706091845386568
O    -0.4521030626235659    1.2437488252157114    1.09964001521108
N    -1.5310589258333003    1.8937947441830785    1.830120269131833
O    -2.2544417602583717    0.9161651678438139    2.567554721361053
O    -2.4110136908806004    2.4830192978425942    0.885282568476774
O    -0.21321595515641092    1.1353398697809034    -1.6896108845219577
N    -1.4113615908711825    1.0370041242991832    -2.5086210923907757
H    1.8927563425780807    -0.35215890118189336    -1.657231535040417
H    1.52278954500123    -1.287650362639719    -0.17265874295927774
H    -0.46443715668781504    -0.9176308744335663    -1.4885071866471375
H    -1.9841828326947117    0.22860674150099722    0.12871713553194875


