%nprocshared=24
%mem=120GB
# HF/6-31G(d) Opt Freq

O=[N+1]([O-1])OC(CO[N+1]([O-1])=O)O[N+1]([O-1])[O-1] geometry optimization

0 1
O    -1.6867555806190606    3.3744334496892106    -0.20062361233409137
N    -1.0885525564948044    2.390776774484869    0.22553659713763544
O    -0.35215684338296027    2.2735043212188453    1.2042647334600942
O    -1.236167289058387    1.2610499374731523    -0.6055328439038064
C    -0.6328781550827947    0.08662566630272889    -0.06523989716702103
C    0.8425581166889095    0.02958541671031259    -0.497743432614769
O    1.4645132051286764    -1.0888004110780463    0.13399179288389867
N    2.82365150177897    -1.232726498809809    -0.23446223339654393
O    3.3639049957062865    -2.195290679575974    0.3033261074182867
O    3.2757778190363    -0.41047214885476446    -1.031772752107772
O    -1.2545322534926269    -1.068506815607951    -0.6616075735173886
N    -2.2907359804515735    -1.6026998911067085    0.2104752032999092
O    -3.12645545100314    -0.5407244055909415    0.6526546679608036
O    -1.6559564119898778    -2.17627298827357    1.343520767094419
H    -0.6923633028783139    0.02789426994476442    1.029951678612327
H    1.3583320753585475    0.9552530231019227    -0.21743510079863146
H    0.8878161107551756    -0.08362902002809568    -1.5893041020274352


