%nprocshared=24
%mem=120GB
# HF/6-31G(d) Opt Freq

O=[N+1]([O-1])OCCC(O[N+1]([O-1])=O)(O[N+1]([O-1])=O)O[N+1]([O-1])=C=O geometry optimization

0 1
O    3.5889829911278968    1.0323729134595208    -1.8802055100851287
N    3.8540189510780833    -0.09430361484606217    -1.4586246603709607
O    4.898731469533843    -0.7375178467339084    -1.5165681212314368
O    2.813597034304233    -0.7930868003813082    -0.7952448448279227
C    1.604440743197037    -0.038167784411324616    -0.7270277577161463
C    0.5688252285188035    -0.884321414894811    0.01804221171519845
C    -0.8093259102909596    -0.17354717643826245    0.19930531221659778
O    -1.7754890144731832    -1.0669624264852944    0.7622436032250137
N    -1.5620112864459441    -1.4570587811803228    2.09238306982975
O    -2.3415795229871716    -2.3300066530241486    2.4614212714238803
O    -0.6663141362008925    -0.8913039227743277    2.7157988875278596
O    -1.2227687790016724    0.339388227062629    -1.083018572012325
N    -1.7392701793390113    -0.6141575610201091    -1.979379408990666
O    -2.180664816845956    -0.10046451657495256    -3.0029074265108955
O    -1.6237800639665578    -1.799587938164993    -1.6802548375297928
O    -0.5124565990067425    0.9920763598754634    1.002091657604325
N    -1.6764567502128864    1.805873564491729    1.2267764696083299
O    -2.835038403246171    1.3806463815206718    0.9218151601726763
C    -1.5133886309821065    3.1431591769714537    1.8350891433878647
O    -1.3601058673087203    4.208653803154748    2.314883612145866
H    1.2486842553456836    0.17814147840044836    -1.7409163763972781
H    1.7795147613370694    0.8969684058308073    -0.18218006160918362
H    1.0018473290995358    -1.1494871685822832    0.989881518791741
H    0.4600071967649018    -1.8473067052562282    -0.4934043403676659


