%nprocshared=24
%mem=120GB
# HF/6-31G(d) Opt Freq

O=[N+1]([O-1])OCC(O[N+1]([O-1])=O)(CO[N+1]([O-1])=O)O[N+1]([O-1])=C=O geometry optimization

0 1
O    -3.065790074298337    -1.87531326174657    -0.6505264753213773
N    -2.580763645284228    -1.9301730819199368    0.47909473973745004
O    -2.936320739360215    -2.567847356487091    1.4664901154535839
O    -1.417258260445861    -1.1599682598166285    0.7186747617197211
C    -1.0457376836362187    -0.357424432161766    -0.40429323344264245
C    0.2038749539322568    0.5149346553028991    -0.05246258237182546
O    0.3536058622292889    1.727738506236532    -0.8027750144057496
N    0.35383208670876476    1.6097738062549038    -2.205994010773265
O    0.4694287110022507    2.692554341723326    -2.769800967263743
O    0.2722415803601807    0.47861179361222184    -2.674590979346087
C    1.519793286227156    -0.31700574459216674    -0.1327115976397729
O    1.4109576094387681    -1.496949622402201    0.6645195440011622
N    2.6166293298644083    -2.238628335831167    0.7083269141361527
O    3.56994695986348    -1.7913527433841747    0.07094727384996273
O    2.5255017573020586    -3.251018917065195    1.396422276694151
O    0.14758184505245653    0.8717082029942572    1.3633103675425966
N    -0.817621162062654    1.9054734330550365    1.640385713764723
O    -1.8198026092628503    2.073100485728602    0.8763184641513789
C    -0.6552527990158253    2.740784597565257    2.8494012925040435
O    -0.5029696345129886    3.399811427321106    3.814626932631851
H    -1.880077615345478    0.28445150565569477    -0.7096940690526294
H    -0.8122216590178063    -1.0235196092531296    -1.2431283944033704
H    1.750410183130916    -0.6009170561720446    -1.1641056964438008
H    2.340011717131206    0.31117566538270264    0.2422590379104491


