%nprocshared=24
%mem=120GB
# HF/6-31G(d) Opt Freq

O=[N+1]([O-1])OC(C(O[N+1]([O-1])[O-1])O[N+1]([O-1])=O)O[N+1]([O-1])=O geometry optimization

0 1
O    2.964040324151035    1.731698278649809    -2.238325929362903
N    2.6307804748375663    0.877586384188099    -1.4230921430059142
O    3.2919868024910044    -0.00662216594744201    -0.8802895511309797
O    1.2593355408958815    0.9399500713978314    -1.099689439180945
C    0.8665096411251567    -0.07697714891865397    -0.15982741752512372
C    -0.6940275443596028    -0.1427320693946349    -0.2139925461324907
O    -1.1930244420486016    1.1715096998746295    0.03766041988791129
N    -2.0504380826721755    1.1222715911970664    1.2103364025274492
O    -2.7346875939087743    2.3620879345899772    1.254090044589112
O    -1.1837644185676544    1.0807286749514755    2.3372350292770054
O    -1.0201677278677694    -0.5863056590932465    -1.5384306878328409
N    -2.3530681680129657    -1.027315301057295    -1.6516111728223253
O    -2.6191165959206186    -1.454248028474225    -2.7695061108349917
O    -3.0531466532554288    -0.9298180656097206    -0.6446838307838867
O    1.3373020500637955    0.25653139987322504    1.144347446570986
N    1.4276557600000872    -0.866243296631857    1.99462636725445
O    2.00247544892731    -0.6293283451541059    3.0510224609756134
O    0.9061644082261214    -1.9044036151895845    1.5843855963435551
H    1.251143338124943    -1.0423227658254992    -0.5229583726240286
H    -1.0359525622293493    -0.8760475734260549    0.5287034338104568


